% Data file generated from RandomInstances/18_0.85_1.col DIMACS file
size = 18;

chi = 11;

adjacency = [|0,1,1,1,1,1,1,1,1,1,1,0,1,1,0,1,1,1,
|1,0,1,1,0,0,1,1,1,1,1,1,1,1,1,1,1,1,
|1,1,0,1,1,1,1,1,1,1,1,0,1,1,1,1,1,1,
|1,1,1,0,1,0,1,1,1,0,1,1,1,1,1,1,1,1,
|1,0,1,1,0,1,1,1,1,0,0,1,1,1,1,1,1,1,
|1,0,1,0,1,0,1,1,1,1,1,1,1,1,1,1,1,1,
|1,1,1,1,1,1,0,1,1,1,1,1,0,1,0,1,1,1,
|1,1,1,1,1,1,1,0,1,1,1,1,1,1,0,1,1,1,
|1,1,1,1,1,1,1,1,0,1,1,1,0,1,1,1,0,1,
|1,1,1,0,0,1,1,1,1,0,0,1,1,1,1,1,1,1,
|1,1,1,1,0,1,1,1,1,0,0,1,1,1,1,1,1,0,
|0,1,0,1,1,1,1,1,1,1,1,0,1,1,1,1,1,1,
|1,1,1,1,1,1,0,1,0,1,1,1,0,1,1,1,1,1,
|1,1,1,1,1,1,1,1,1,1,1,1,1,0,1,1,1,1,
|0,1,1,1,1,1,0,0,1,1,1,1,1,1,0,1,1,1,
|1,1,1,1,1,1,1,1,1,1,1,1,1,1,1,0,1,1,
|1,1,1,1,1,1,1,1,0,1,1,1,1,1,1,1,0,1,
|1,1,1,1,1,1,1,1,1,1,0,1,1,1,1,1,1,0,
|];